c cvc-mult4_4
c i 3  6  12  22  2  8  18  34  5  11  21  37  0
c 2  : (b_19)[0]
c 3  : (a_18)[0]
c 4  : n1669
c 5  : (c_20)[0]
c 6  : (a_18)[1]
c 7  : n1670
c 8  : (b_19)[1]
c 9  : n1673
c 10  : n1674
c 11  : (c_20)[1]
c 12  : (a_18)[2]
c 13  : n1671
c 14  : n1679
c 15  : n1680
c 16  : n1719
c 17  : n1721
c 18  : (b_19)[2]
c 19  : n1691
c 20  : n1722
c 21  : (c_20)[2]
c 22  : (a_18)[3]
c 23  : n1672
c 24  : n1685
c 25  : n1686
c 26  : n1724
c 27  : n1726
c 28  : n1727
c 29  : n1728
c 30  : n1697
c 31  : n1729
c 32  : n1731
c 33  : n1733
c 34  : (b_19)[3]
c 35  : n1703
c 36  : n1734
c 37  : (c_20)[3]
p cnf 36 97
2  -4  0
3  -4  0
-2  -3  4  0
-4  5  0
4  -5  0
2  -7  0
6  -7  0
-2  -6  7  0
3  -9  0
8  -9  0
-3  -8  9  0
7  9  -10  0
-7  -9  -10  0
7  -9  10  0
-7  9  10  0
-10  11  0
10  -11  0
2  -13  0
12  -13  0
-2  -12  13  0
6  -14  0
8  -14  0
-6  -8  14  0
13  14  -15  0
-13  -14  -15  0
13  -14  15  0
-13  14  15  0
2  -16  0
6  -16  0
3  -16  0
8  -16  0
-2  -3  -6  -8  16  0
15  16  -17  0
-15  -16  -17  0
15  -16  17  0
-15  16  17  0
3  -19  0
18  -19  0
-3  -18  19  0
17  19  -20  0
-17  -19  -20  0
17  -19  20  0
-17  19  20  0
-20  21  0
20  -21  0
2  -23  0
22  -23  0
-2  -22  23  0
12  -24  0
8  -24  0
-8  -12  24  0
23  24  -25  0
-23  -24  -25  0
23  -24  25  0
-23  24  25  0
2  -26  0
12  -26  0
6  -26  0
8  -26  0
-2  -6  -8  -12  26  0
15  -27  0
2  -27  0
6  -27  0
3  -27  0
8  -27  0
-2  -3  -6  -8  -15  27  0
-26  28  0
-27  28  0
26  27  -28  0
25  28  -29  0
-25  -28  -29  0
25  -28  29  0
-25  28  29  0
6  -30  0
18  -30  0
-6  -18  30  0
29  30  -31  0
-29  -30  -31  0
29  -30  31  0
-29  30  31  0
17  -32  0
3  -32  0
18  -32  0
-3  -17  -18  32  0
31  32  -33  0
-31  -32  -33  0
31  -32  33  0
-31  32  33  0
3  -35  0
34  -35  0
-3  -34  35  0
33  35  -36  0
-33  -35  -36  0
33  -35  36  0
-33  35  36  0
-36  37  0
36  -37  0
